
Gurobi 11.0.1 (win64) logging started Mon May 13 15:38:49 2024

Set parameter LogFile to value "output/solver_log22.txt"
Gurobi Optimizer version 11.0.1 build v11.0.1rc0 (win64 - Windows 11.0 (22631.2))

CPU model: 11th Gen Intel(R) Core(TM) i7-1165G7 @ 2.80GHz, instruction set [SSE2|AVX|AVX2|AVX512]
Thread count: 4 physical cores, 8 logical processors, using up to 8 threads

Optimize a model with 3041 rows, 818 columns and 56527 nonzeros
Model fingerprint: 0xb86b9aef
Variable types: 248 continuous, 570 integer (570 binary)
Coefficient statistics:
  Matrix range     [4e-01, 1e+05]
  Objective range  [1e+00, 1e+02]
  Bounds range     [1e+00, 1e+00]
  RHS range        [1e-02, 1e+05]

User MIP start produced solution with objective 75660.5 (0.01s)
User MIP start produced solution with objective 75660.5 (0.01s)
Loaded user MIP start with objective 75660.5

Presolve removed 384 rows and 305 columns
Presolve time: 0.05s
Presolved: 2657 rows, 513 columns, 51952 nonzeros
Variable types: 235 continuous, 278 integer (274 binary)

Root relaxation: objective 7.685347e+04, 701 iterations, 0.05 seconds (0.09 work units)

    Nodes    |    Current Node    |     Objective Bounds      |     Work
 Expl Unexpl |  Obj  Depth IntInf | Incumbent    BestBd   Gap | It/Node Time

     0     0 76853.4707    0   26 75660.5365 76853.4707  1.58%     -    0s
     0     0 76750.1906    0   36 75660.5365 76750.1906  1.44%     -    0s
     0     0 76703.3890    0   29 75660.5365 76703.3890  1.38%     -    0s
     0     0 76387.5709    0   26 75660.5365 76387.5709  0.96%     -    0s
     0     0 76144.1087    0   16 75660.5365 76144.1087  0.64%     -    0s
     0     2 76144.1087    0   16 75660.5365 76144.1087  0.64%     -    0s
H  309   108                    75857.725796 76031.1944  0.23%  38.3    1s
  2116   612 75867.3840   30   12 75857.7258 75972.8032  0.15%  29.2    5s
  4145   408 75916.2337   40    3 75857.7258 75916.2342  0.08%  28.8   10s
 10294   745 75860.4324   42    3 75857.7258 75914.2956  0.07%  22.5   15s
 15526  1133 75860.9680   54    2 75857.7258 75914.2955  0.07%  25.6   20s
 21041  1486 infeasible   64      75857.7258 75914.2953  0.07%  25.7   26s
 26151  1934 infeasible   48      75857.7258 75914.2952  0.07%  26.4   30s
 31659  2524 infeasible   52      75857.7258 75914.2951  0.07%  27.8   35s
 35477  2458     cutoff   38      75857.7258 75914.1667  0.07%  28.4   40s
 42110  2357 75862.8761   38    7 75857.7258 75878.1764  0.03%  28.0   45s

Cutting planes:
  Inf proof: 7

Explored 43460 nodes (1232086 simplex iterations) in 46.05 seconds (90.22 work units)
Thread count was 8 (of 8 available processors)

Solution count 3: 75857.7 75857.7 75660.5 

Optimal solution found (tolerance 1.00e-04)
Best objective 7.585772579555e+04, best bound 7.586387936934e+04, gap 0.0081%
